Version identifier: 22.1.0.0 | 2022-03-09 | 1a383f8ce
CPXPARAM_Read_DataCheck                          1
1 of 1 MIP starts provided solutions.
MIP start 'm1' defined initial solution with objective 7.0000.
Tried aggregator 3 times.
MIP Presolve eliminated 230 rows and 113 columns.
MIP Presolve modified 8 coefficients.
Aggregator did 128 substitutions.
Reduced MIP has 72 rows, 121 columns, and 305 nonzeros.
Reduced MIP has 117 binaries, 4 generals, 0 SOSs, and 0 indicators.
Presolve time = 0.00 sec. (0.95 ticks)
Probing fixed 6 vars, tightened 0 bounds.
Probing time = 0.00 sec. (0.15 ticks)
Tried aggregator 2 times.
Detecting symmetries...
MIP Presolve eliminated 7 rows and 7 columns.
Aggregator did 2 substitutions.
Reduced MIP has 63 rows, 112 columns, and 272 nonzeros.
Reduced MIP has 108 binaries, 4 generals, 0 SOSs, and 0 indicators.
Presolve time = 0.00 sec. (0.29 ticks)
Probing fixed 1 vars, tightened 0 bounds.
Probing time = 0.00 sec. (0.13 ticks)
Clique table members: 316.
MIP emphasis: balance optimality and feasibility.
MIP search method: dynamic search.
Parallel mode: deterministic, using up to 8 threads.
Root relaxation solution time = 0.00 sec. (0.30 ticks)

        Nodes                                         Cuts/
   Node  Left     Objective  IInf  Best Integer    Best Bound    ItCnt     Gap

*     0+    0                            7.0000        0.0000           100.00%
      0     0        4.4500    47        7.0000        4.4500       56   36.43%
      0     0        cutoff              7.0000                     82    0.00%
Elapsed time = 0.02 sec. (4.30 ticks, tree = 0.01 MB, solutions = 1)

Clique cuts applied:  5
Zero-half cuts applied:  8
Gomory fractional cuts applied:  4

Root node processing (before b&c):
  Real time             =    0.02 sec. (4.31 ticks)
Parallel b&c, 8 threads:
  Real time             =    0.00 sec. (0.00 ticks)
  Sync time (average)   =    0.00 sec.
  Wait time (average)   =    0.00 sec.
                          ------------
Total (root+branch&cut) =    0.02 sec. (4.31 ticks)
Version identifier: 22.1.0.0 | 2022-03-09 | 1a383f8ce
CPXPARAM_Read_DataCheck                          1
1 of 1 MIP starts provided solutions.
MIP start 'm1' defined initial solution with objective 7.0000.
Tried aggregator 3 times.
MIP Presolve eliminated 230 rows and 113 columns.
MIP Presolve modified 8 coefficients.
Aggregator did 128 substitutions.
Reduced MIP has 72 rows, 121 columns, and 305 nonzeros.
Reduced MIP has 117 binaries, 4 generals, 0 SOSs, and 0 indicators.
Presolve time = 0.00 sec. (0.95 ticks)
Probing fixed 6 vars, tightened 0 bounds.
Probing time = 0.00 sec. (0.15 ticks)
Tried aggregator 2 times.
Detecting symmetries...
MIP Presolve eliminated 7 rows and 7 columns.
Aggregator did 2 substitutions.
Reduced MIP has 63 rows, 112 columns, and 272 nonzeros.
Reduced MIP has 108 binaries, 4 generals, 0 SOSs, and 0 indicators.
Presolve time = 0.00 sec. (0.29 ticks)
Probing fixed 1 vars, tightened 0 bounds.
Probing time = 0.00 sec. (0.13 ticks)
Clique table members: 316.
MIP emphasis: balance optimality and feasibility.
MIP search method: dynamic search.
Parallel mode: deterministic, using up to 8 threads.
Root relaxation solution time = 0.00 sec. (0.30 ticks)

        Nodes                                         Cuts/
   Node  Left     Objective  IInf  Best Integer    Best Bound    ItCnt     Gap

*     0+    0                            7.0000        0.0000           100.00%
      0     0        4.4500    47        7.0000        4.4500       56   36.43%
      0     0        cutoff              7.0000                     82    0.00%
Elapsed time = 0.02 sec. (4.30 ticks, tree = 0.01 MB, solutions = 1)

Clique cuts applied:  5
Zero-half cuts applied:  8
Gomory fractional cuts applied:  4

Root node processing (before b&c):
  Real time             =    0.02 sec. (4.31 ticks)
Parallel b&c, 8 threads:
  Real time             =    0.00 sec. (0.00 ticks)
  Sync time (average)   =    0.00 sec.
  Wait time (average)   =    0.00 sec.
                          ------------
Total (root+branch&cut) =    0.02 sec. (4.31 ticks)
